************************************************************************
file with basedata            : j60_57.bas
initial value random generator: 2049834036
************************************************************************
projects                      :  1
jobs (incl. supersource/sink ):  62
horizon                       :  364
RESOURCES
  - renewable                 :  4   R
  - nonrenewable              :  0   N
  - doubly constrained        :  0   D
************************************************************************
PROJECT INFORMATION:
pronr.  #jobs rel.date duedate tardcost  MPM-Time
    1     60      0       71       13       71
************************************************************************
PRECEDENCE RELATIONS:
jobnr.    #modes  #successors   successors
   1        1          3           2   3   4
   2        1          3           8   9  26
   3        1          3           5   6  18
   4        1          3          17  22  52
   5        1          3           7  12  15
   6        1          3           8  11  13
   7        1          3          10  31  33
   8        1          3          25  35  44
   9        1          3          25  36  42
  10        1          2          16  38
  11        1          3          20  28  29
  12        1          2          29  30
  13        1          3          14  25  45
  14        1          3          21  26  31
  15        1          2          21  27
  16        1          2          17  23
  17        1          2          34  39
  18        1          3          19  24  27
  19        1          3          37  49  50
  20        1          3          31  32  46
  21        1          3          37  47  51
  22        1          2          29  30
  23        1          2          40  43
  24        1          3          39  57  61
  25        1          3          39  41  46
  26        1          2          34  35
  27        1          2          45  54
  28        1          2          30  43
  29        1          3          32  34  38
  30        1          2          32  54
  31        1          3          48  49  53
  32        1          3          44  48  59
  33        1          3          35  36  42
  34        1          3          42  44  55
  35        1          3          37  40  50
  36        1          2          38  45
  37        1          1          55
  38        1          1          58
  39        1          1          43
  40        1          3          41  47  56
  41        1          3          48  52  53
  42        1          1          46
  43        1          1          59
  44        1          1          50
  45        1          2          49  53
  46        1          3          47  51  59
  47        1          1          54
  48        1          2          57  58
  49        1          2          52  56
  50        1          1          51
  51        1          1          56
  52        1          1          58
  53        1          2          55  61
  54        1          1          60
  55        1          1          57
  56        1          1          60
  57        1          1          60
  58        1          1          61
  59        1          1          62
  60        1          1          62
  61        1          1          62
  62        1          0        
************************************************************************
REQUESTS/DURATIONS:
jobnr. mode duration  R 1  R 2  R 3  R 4
------------------------------------------------------------------------
  1      1     0       0    0    0    0
  2      1     5       4    7    9    0
  3      1     4       5    3    0    8
  4      1     4       3   10    7    3
  5      1     9       1   10    3    5
  6      1     2       3    1    0    1
  7      1     2       8    9    9    8
  8      1     6       1    6    0    2
  9      1     8       0    4    4    1
 10      1     3       0    0    5    6
 11      1     9       9    6    8    7
 12      1     8       6   10    5    0
 13      1     3       7    0   10    6
 14      1    10       0    0    7   10
 15      1     8       7    5    6    7
 16      1     6       4    8    5    0
 17      1     3       8    5    0    0
 18      1    10       7    0    7    6
 19      1     8       0    5    0    4
 20      1     8       1    8    0    8
 21      1     9       9    6    8    7
 22      1     1       5    1    8    2
 23      1     1       9    0    0    0
 24      1    10       1    3   10    2
 25      1    10       0    5    0    4
 26      1     7       7    8    9   10
 27      1     9       8    0   10    0
 28      1    10       8    6    0    0
 29      1     6       5    2    0    2
 30      1     4       5    1    7    6
 31      1     9       2    0    7    4
 32      1     2       9    0   10    2
 33      1     5       8    1    0    6
 34      1     7       0    9   10    9
 35      1     3       9    6    0    2
 36      1     9       4    1    0    6
 37      1     5      10    8    2    0
 38      1     7       0    9    4    8
 39      1     9       3   10    0    1
 40      1     7       1    0   10    4
 41      1     2       4    0    1    5
 42      1     6       3    7    4    8
 43      1    10       9    3    7    1
 44      1     4       1    9    0    0
 45      1     7       2    2    3    6
 46      1     8       0    9    7    6
 47      1     5       5    4   10    9
 48      1     4       0    8    0    0
 49      1    10       9    2    2    9
 50      1     1       2    0    1    0
 51      1     1       1    2    0   10
 52      1     8       0    7    8    7
 53      1     3       0    0    8    4
 54      1     8       0    0    0    8
 55      1     5       1   10    7    2
 56      1     4       1    0    1    5
 57      1     4       8    1    0    6
 58      1     7       7    7   10    0
 59      1     2       4    0    7    5
 60      1    10       6    9    2    8
 61      1     9       8    1    0    2
 62      1     0       0    0    0    0
************************************************************************
RESOURCEAVAILABILITIES:
  R 1  R 2  R 3  R 4
   20   20   20   17
************************************************************************
